5
120
384
40	24
1	5	5	9	5	8	9	5	7	5	9	4	
2	4	11	4	11	2	7	2	5	2	
3	1	20	3	
4	4	5	7	7	5	6	5	7	4	
5	4	6	11	7	8	8	5	4	5	
6	1	6	7	
7	4	8	11	7	10	6	6	17	3	
8	4	6	10	7	5	7	3	17	2	
9	3	5	6	11	4	5	4	
10	3	5	6	9	4	7	3	
11	5	4	11	5	9	9	4	9	3	6	2	
12	1	7	3	
13	2	5	8	14	3	
14	1	10	5	
15	1	7	4	
16	4	7	5	14	4	14	3	9	3	
17	2	8	8	4	4	
18	5	7	11	5	6	12	5	5	4	11	3	
19	4	24	4	14	3	7	2	6	2	
20	2	8	6	19	3	
21	1	9	3	
22	1	6	5	
23	4	6	11	6	9	8	5	8	4	
24	5	5	10	5	6	8	4	16	3	11	3	
25	3	4	10	4	9	6	5	
26	5	8	7	8	7	11	5	6	4	4	2	
27	2	5	10	8	3	
28	1	7	4	
29	5	8	11	6	4	16	3	14	3	7	3	
30	1	6	2	
31	5	8	11	8	4	5	4	23	3	8	3	
32	5	4	7	6	5	6	4	7	3	7	3	
33	5	5	8	7	5	5	5	7	3	4	2	
34	5	5	9	14	4	11	4	17	3	7	2	
35	2	6	8	10	4	
36	3	6	11	22	3	16	2	
37	1	5	9	
38	4	6	10	8	4	15	3	6	3	
39	1	5	9	
40	1	12	3	
41	2	7	6	6	2	
42	4	7	12	4	12	5	5	12	2	
43	3	6	11	21	4	11	3	
44	4	8	4	6	4	14	3	8	3	
45	5	11	6	4	6	8	4	4	4	4	3	
46	3	6	8	14	4	8	2	
47	5	5	11	8	4	6	4	10	3	7	3	
48	4	4	12	6	11	4	6	11	2	
49	1	19	2	
50	5	6	10	8	4	24	3	7	3	24	2	
51	4	5	7	4	5	4	5	23	3	
52	2	7	9	9	5	
53	3	7	6	21	4	16	3	
54	5	7	10	8	7	12	5	10	4	7	2	
55	5	7	6	11	4	8	3	22	2	11	2	
56	1	4	3	
57	5	18	4	12	3	9	3	9	3	6	3	
58	2	7	6	7	5	
59	3	5	6	4	3	4	3	
60	2	18	3	5	3	
61	5	23	4	4	4	17	3	14	3	6	3	
62	5	6	10	10	6	17	3	8	3	6	2	
63	4	10	6	5	4	7	3	7	2	
64	3	4	11	12	3	5	3	
65	2	5	5	13	4	
66	1	24	3	
67	3	5	6	7	3	6	3	
68	3	4	11	5	4	23	2	
69	1	6	3	
70	4	7	5	8	4	11	3	5	2	
71	5	4	9	11	6	8	6	16	2	8	2	
72	3	6	6	5	4	7	3	
73	4	5	12	24	4	7	4	16	2	
74	4	4	11	18	3	9	3	8	3	
75	4	6	5	19	4	7	3	5	3	
76	5	10	4	12	3	9	3	6	2	4	2	
77	4	21	4	11	3	6	3	6	2	
78	5	6	8	8	7	6	6	7	4	7	3	
79	1	6	5	
80	3	7	9	17	4	7	2	
81	5	8	9	6	7	7	4	6	3	10	2	
82	1	11	2	
83	3	7	8	12	3	12	3	
84	3	22	4	23	2	16	2	
85	1	5	3	
86	5	12	5	6	5	7	3	6	2	4	2	
87	2	6	11	6	4	
88	2	5	5	14	3	
89	3	8	10	13	4	6	4	
90	1	9	4	
91	5	5	10	4	5	12	4	11	3	12	2	
92	4	4	12	7	8	9	4	7	2	
93	3	6	6	8	4	5	4	
94	3	5	6	22	4	18	2	
95	1	7	4	
96	4	12	4	24	3	8	3	7	3	
97	5	7	4	20	3	12	3	8	2	5	2	
98	5	10	6	11	4	16	3	10	3	16	2	
99	5	5	11	5	8	6	6	6	5	13	3	
100	1	7	6	
101	5	5	6	6	4	24	3	21	3	5	3	
102	1	8	2	
103	3	5	5	10	3	7	3	
104	3	12	3	6	3	4	3	
105	1	13	3	
106	4	6	5	10	4	4	3	7	2	
107	4	7	9	6	8	6	6	7	4	
108	5	4	11	8	8	9	4	18	3	6	2	
109	5	11	6	6	5	9	4	12	3	11	3	
110	5	4	10	15	4	9	4	5	3	5	2	
111	5	9	4	5	4	15	3	21	2	9	2	
112	4	5	7	9	5	20	4	10	3	
113	4	7	5	18	3	16	3	20	2	
114	3	6	4	4	4	17	2	
115	2	7	2	6	2	
116	2	4	7	12	3	
117	2	5	10	14	3	
118	2	17	3	11	3	
119	2	22	3	7	3	
120	3	8	10	5	4	5	4	
